% File represents an instance of a Composite Structure problem to be solved by a CP framework
% Created on 2025-03-26 10:42:07.567
T = 58;
n = 36;
m = 60;
edges = [(1, 2),
(7, 8),
(14, 13),
(19, 20),
(25, 26),
(31, 32),
(3, 2),
(8, 9),
(14, 15),
(21, 20),
(27, 26),
(32, 33),
(3, 4),
(10, 9),
(15, 16),
(21, 22),
(28, 27),
(34, 33),
(5, 4),
(10, 11),
(17, 16),
(23, 22),
(28, 29),
(34, 35),
(6, 5),
(12, 11),
(18, 17),
(24, 23),
(29, 30),
(36, 35),
(7, 1),
(7, 13),
(19, 13),
(19, 25),
(31, 25),
(8, 2),
(14, 8),
(14, 20),
(20, 26),
(32, 26),
(3, 9),
(15, 9),
(15, 21),
(21, 27),
(27, 33),
(10, 4),
(10, 16),
(16, 22),
(28, 22),
(28, 34),
(5, 11),
(17, 11),
(17, 23),
(23, 29),
(29, 35),
(6, 12),
(18, 12),
(18, 24),
(24, 30),
(36, 30)];
counts = [|14, 6, 14, 20,
|14, 6, 14, 18,
|14, 6, 14, 22,
|14, 4, 14, 18,
|14, 4, 14, 22,
|14, 8, 14, 22,
|14, 8, 14, 22,
|14, 6, 14, 20,
|12, 6, 12, 20,
|14, 8, 14, 20,
|14, 4, 14, 18,
|14, 6, 14, 22,
|14, 4, 14, 20,
|14, 6, 14, 22,
|14, 6, 14, 20,
|12, 6, 12, 20,
|14, 6, 14, 22,
|14, 6, 14, 24,
|14, 6, 14, 20,
|14, 4, 14, 18,
|14, 4, 14, 20,
|12, 4, 12, 20,
|14, 4, 14, 22,
|14, 4, 14, 24,
|14, 6, 14, 18,
|14, 4, 14, 14,
|14, 4, 14, 18,
|14, 4, 14, 22,
|14, 2, 14, 22,
|14, 2, 14, 20,
|14, 8, 14, 20,
|14, 4, 14, 18,
|14, 2, 14, 14,
|14, 2, 14, 20,
|14, 2, 14, 18,
|14, 4, 14, 22|];
